c Lingeling SAT Solver
c 
c Version azf 92032848c138b2f33629ad24394d60a3787a1046
c 
c Copyright (C) 2010-2014 Armin Biere JKU Linz Austria.
c All rights reserved.
c 
c released Don Mai 22 22:08:00 CEST 2014
c compiled Mon Oct  6 05:55:43 PDT 2014
c 
c gcc (Ubuntu 4.8.2-19ubuntu1) 4.8.2
c -Wall -O3 -DNDBLSCR -DNLGLOG -DNDEBUG -DNCHKSOL -DNLGLPICOSAT -DNLGLDRUPLIG
c -DNLGLYALSAT
c Linux ubuntu 3.13.0-32-generic x86_64
c 
c reading input file benchmark-sat/translations/gc-le450_5a-4.cnf
c no embedded options
c found 'p cnf 1800 26006' header
c read 1800 variables, 26006 clauses, 52912 literals in 0.00 seconds
c 
c  seconds         irredundant          redundant clauses agility   height
c          variables clauses conflicts large ternary binary    glue         MB
c 
c S    0.0    1800    26006         0       0      0     0   0  0.0   0.0    1
c 
c  seconds         irredundant          redundant clauses agility   height
c          variables clauses conflicts large ternary binary    glue         MB
c 
s UNSATISFIABLE
c
c    0.119  99% simplifying
c    0.001   1% search
c ==================================
c    0.120 100% all
c 
c 75 decisions, 623.5 decisions/sec
c 43 conflicts, 357.5 conflicts/sec
c 1869 propagations, 0.0 megaprops/sec
c 0.1 seconds, 2.2 MB
